(declare-fun v18 () Bool)
(declare-fun i2 () Int)
(declare-fun i3 () Int)
(push)
(assert (= 69 (+ 4 i3)))
(check-sat)
(assert v18)
(assert (= i2 66))
(check-sat)
(check-sat)
(check-sat)
(check-sat)
(push)
(assert (= 71 (+ 4 i3)))
(push)
(check-sat)
(check-sat)
(pop)
(check-sat)
(pop)
(check-sat)
(check-sat)
(pop)
(check-sat)
(check-sat)
(check-sat)
(check-sat)
(assert (= false (= 66 i3)))
(check-sat)
